(set-info :smt-lib-version 2.6)
(set-logic UF)
(set-info :source |Benchmarks from the paper: "Extending Sledgehammer with SMT Solvers" by Jasmin Blanchette, Sascha Bohme, and Lawrence C. Paulson, CADE 2011.  Translated to SMT2 by Andrew Reynolds and Morgan Deters.|)
(set-info :category "industrial")
(set-info :status unknown)
(declare-sort S1 0)
(declare-sort S2 0)
(declare-sort S3 0)
(declare-sort S4 0)
(declare-sort S5 0)
(declare-sort S6 0)
(declare-sort S7 0)
(declare-sort S8 0)
(declare-sort S9 0)
(declare-sort S10 0)
(declare-sort S11 0)
(declare-sort S12 0)
(declare-sort S13 0)
(declare-sort S14 0)
(declare-sort S15 0)
(declare-sort S16 0)
(declare-sort S17 0)
(declare-sort S18 0)
(declare-sort S19 0)
(declare-sort S20 0)
(declare-sort S21 0)
(declare-sort S22 0)
(declare-sort S23 0)
(declare-sort S24 0)
(declare-sort S25 0)
(declare-sort S26 0)
(declare-sort S27 0)
(declare-sort S28 0)
(declare-sort S29 0)
(declare-sort S30 0)
(declare-sort S31 0)
(declare-sort S32 0)
(declare-sort S33 0)
(declare-sort S34 0)
(declare-sort S35 0)
(declare-sort S36 0)
(declare-sort S37 0)
(declare-sort S38 0)
(declare-sort S39 0)
(declare-sort S40 0)
(declare-sort S41 0)
(declare-sort S42 0)
(declare-sort S43 0)
(declare-sort S44 0)
(declare-sort S45 0)
(declare-sort S46 0)
(declare-sort S47 0)
(declare-sort S48 0)
(declare-sort S49 0)
(declare-sort S50 0)
(declare-sort S51 0)
(declare-sort S52 0)
(declare-sort S53 0)
(declare-sort S54 0)
(declare-sort S55 0)
(declare-sort S56 0)
(declare-sort S57 0)
(declare-sort S58 0)
(declare-sort S59 0)
(declare-sort S60 0)
(declare-sort S61 0)
(declare-sort S62 0)
(declare-sort S63 0)
(declare-sort S64 0)
(declare-sort S65 0)
(declare-fun f1 () S1)
(declare-fun f2 () S1)
(declare-fun f3 () S3)
(declare-fun f4 () S2)
(declare-fun f5 (S5 S2) S2)
(declare-fun f6 (S6 S2) S5)
(declare-fun f7 () S6)
(declare-fun f8 (S7 S4) S2)
(declare-fun f9 () S7)
(declare-fun f10 () S2)
(declare-fun f11 () S4)
(declare-fun f12 (S8 S3) S3)
(declare-fun f13 (S9 S4) S8)
(declare-fun f14 () S9)
(declare-fun f15 (S10 S3) S8)
(declare-fun f16 () S10)
(declare-fun f17 () S10)
(declare-fun f18 (S11 S2) S3)
(declare-fun f19 (S12 S3) S11)
(declare-fun f20 () S12)
(declare-fun f21 (S13 S4) S4)
(declare-fun f22 (S14 S3) S13)
(declare-fun f23 () S14)
(declare-fun f24 (S8) S1)
(declare-fun f25 (S16 S15) S5)
(declare-fun f26 () S16)
(declare-fun f27 (S17 S15) S15)
(declare-fun f28 (S18 S2) S17)
(declare-fun f29 () S18)
(declare-fun f30 () S6)
(declare-fun f31 (S20 S19) S13)
(declare-fun f32 () S20)
(declare-fun f33 (S21 S19) S19)
(declare-fun f34 (S22 S4) S21)
(declare-fun f35 () S22)
(declare-fun f36 (S23 S4) S13)
(declare-fun f37 () S23)
(declare-fun f38 () S23)
(declare-fun f39 (S26 S24) S24)
(declare-fun f40 (S27 S25) S26)
(declare-fun f41 () S27)
(declare-fun f42 (S28 S25) S25)
(declare-fun f43 (S29 S24) S28)
(declare-fun f44 () S29)
(declare-fun f45 (S30 S24) S26)
(declare-fun f46 () S30)
(declare-fun f47 () S30)
(declare-fun f48 (S32 S31) S17)
(declare-fun f49 () S32)
(declare-fun f50 (S33 S31) S31)
(declare-fun f51 (S34 S15) S33)
(declare-fun f52 () S34)
(declare-fun f53 (S35 S15) S17)
(declare-fun f54 () S35)
(declare-fun f55 () S35)
(declare-fun f56 (S37 S36) S36)
(declare-fun f57 (S38 S24) S37)
(declare-fun f58 () S38)
(declare-fun f59 (S39 S36) S26)
(declare-fun f60 () S39)
(declare-fun f61 (S40 S36) S37)
(declare-fun f62 () S40)
(declare-fun f63 () S40)
(declare-fun f64 (S41 S2) S36)
(declare-fun f65 (S42 S36) S41)
(declare-fun f66 () S42)
(declare-fun f67 () S36)
(declare-fun f68 () S36)
(declare-fun f69 () S6)
(declare-fun f70 () S3)
(declare-fun f71 (S43 S2) S19)
(declare-fun f72 (S44 S19) S43)
(declare-fun f73 () S44)
(declare-fun f74 () S19)
(declare-fun f75 () S19)
(declare-fun f76 (S45 S2) S25)
(declare-fun f77 (S46 S25) S45)
(declare-fun f78 () S46)
(declare-fun f79 () S25)
(declare-fun f80 () S25)
(declare-fun f81 (S47 S2) S31)
(declare-fun f82 (S48 S31) S47)
(declare-fun f83 () S48)
(declare-fun f84 () S31)
(declare-fun f85 () S31)
(declare-fun f86 (S49 S2) S15)
(declare-fun f87 (S50 S15) S49)
(declare-fun f88 () S50)
(declare-fun f89 () S15)
(declare-fun f90 () S15)
(declare-fun f91 (S51 S2) S24)
(declare-fun f92 (S52 S24) S51)
(declare-fun f93 () S52)
(declare-fun f94 () S24)
(declare-fun f95 () S24)
(declare-fun f96 (S53 S2) S4)
(declare-fun f97 (S54 S4) S53)
(declare-fun f98 () S54)
(declare-fun f99 () S4)
(declare-fun f100 () S4)
(declare-fun f101 (S55 S19) S21)
(declare-fun f102 () S55)
(declare-fun f103 () S55)
(declare-fun f104 (S56 S25) S28)
(declare-fun f105 () S56)
(declare-fun f106 () S56)
(declare-fun f107 (S57 S31) S33)
(declare-fun f108 () S57)
(declare-fun f109 () S57)
(declare-fun f110 () S58)
(declare-fun f111 (S19 S58) S58)
(declare-fun f112 () S58)
(declare-fun f113 () S59)
(declare-fun f114 (S25 S59) S59)
(declare-fun f115 () S59)
(declare-fun f116 () S60)
(declare-fun f117 (S31 S60) S60)
(declare-fun f118 () S60)
(declare-fun f119 (S61 S19) S2)
(declare-fun f120 () S61)
(declare-fun f121 (S62 S25) S2)
(declare-fun f122 () S62)
(declare-fun f123 (S63 S31) S2)
(declare-fun f124 () S63)
(declare-fun f125 (S64 S15) S2)
(declare-fun f126 () S64)
(declare-fun f127 (S65 S24) S2)
(declare-fun f128 () S65)
(assert (not (= f1 f2)))
(assert (not (exists ((?v0 S2) (?v1 S3) (?v2 S4)) (and (not (= ?v1 f3)) (and (not (= ?v0 f4)) (and (= (f5 (f6 f7 (f5 (f6 f7 (f8 f9 ?v2)) ?v0)) f10) (f8 f9 f11)) (forall ((?v3 S3)) (let ((?v_0 (f13 f14 f11))) (= (f12 ?v_0 ?v3) (f12 (f15 f16 (f12 ?v_0 f3)) (f12 (f15 f17 (f18 (f19 f20 ?v3) ?v0)) (f12 (f13 f14 (f21 (f22 f23 ?v1) ?v2)) ?v3))))))))))))
(assert (not (= (f24 (f13 f14 f11)) f1)))
(assert (not (= (f24 (f13 f14 f11)) f1)))
(assert (forall ((?v0 S3) (?v1 S4) (?v2 S3)) (= (f12 (f13 f14 (f21 (f22 f23 ?v0) ?v1)) ?v2) (f12 (f15 f16 ?v0) (f12 (f15 f17 ?v2) (f12 (f13 f14 ?v1) ?v2))))))
(assert (forall ((?v0 S2) (?v1 S15) (?v2 S2)) (= (f5 (f25 f26 (f27 (f28 f29 ?v0) ?v1)) ?v2) (f5 (f6 f7 ?v0) (f5 (f6 f30 ?v2) (f5 (f25 f26 ?v1) ?v2))))))
(assert (forall ((?v0 S4) (?v1 S19) (?v2 S4)) (= (f21 (f31 f32 (f33 (f34 f35 ?v0) ?v1)) ?v2) (f21 (f36 f37 ?v0) (f21 (f36 f38 ?v2) (f21 (f31 f32 ?v1) ?v2))))))
(assert (forall ((?v0 S24) (?v1 S25) (?v2 S24)) (= (f39 (f40 f41 (f42 (f43 f44 ?v0) ?v1)) ?v2) (f39 (f45 f46 ?v0) (f39 (f45 f47 ?v2) (f39 (f40 f41 ?v1) ?v2))))))
(assert (forall ((?v0 S15) (?v1 S31) (?v2 S15)) (= (f27 (f48 f49 (f50 (f51 f52 ?v0) ?v1)) ?v2) (f27 (f53 f54 ?v0) (f27 (f53 f55 ?v2) (f27 (f48 f49 ?v1) ?v2))))))
(assert (forall ((?v0 S36) (?v1 S24) (?v2 S36)) (= (f56 (f57 f58 (f39 (f59 f60 ?v0) ?v1)) ?v2) (f56 (f61 f62 ?v0) (f56 (f61 f63 ?v2) (f56 (f57 f58 ?v1) ?v2))))))
(assert (forall ((?v0 S2)) (= (f64 (f65 f66 f67) ?v0) (ite (= ?v0 f4) f68 f67))))
(assert (forall ((?v0 S2)) (= (f5 (f6 f69 f4) ?v0) (ite (= ?v0 f4) f10 f4))))
(assert (forall ((?v0 S2)) (= (f18 (f19 f20 f3) ?v0) (ite (= ?v0 f4) f70 f3))))
(assert (forall ((?v0 S2)) (= (f71 (f72 f73 f74) ?v0) (ite (= ?v0 f4) f75 f74))))
(assert (forall ((?v0 S2)) (= (f76 (f77 f78 f79) ?v0) (ite (= ?v0 f4) f80 f79))))
(assert (forall ((?v0 S2)) (= (f81 (f82 f83 f84) ?v0) (ite (= ?v0 f4) f85 f84))))
(assert (forall ((?v0 S2)) (= (f86 (f87 f88 f89) ?v0) (ite (= ?v0 f4) f90 f89))))
(assert (forall ((?v0 S2)) (= (f91 (f92 f93 f94) ?v0) (ite (= ?v0 f4) f95 f94))))
(assert (forall ((?v0 S2)) (= (f96 (f97 f98 f99) ?v0) (ite (= ?v0 f4) f100 f99))))
(assert (forall ((?v0 S3) (?v1 S2) (?v2 S2)) (let ((?v_0 (f19 f20 ?v0))) (= (f18 ?v_0 (f5 (f6 f7 ?v1) ?v2)) (f12 (f15 f17 (f18 ?v_0 ?v1)) (f18 ?v_0 ?v2))))))
(assert (forall ((?v0 S2) (?v1 S2) (?v2 S2)) (let ((?v_0 (f6 f69 ?v0))) (= (f5 ?v_0 (f5 (f6 f7 ?v1) ?v2)) (f5 (f6 f30 (f5 ?v_0 ?v1)) (f5 ?v_0 ?v2))))))
(assert (forall ((?v0 S4) (?v1 S2) (?v2 S2)) (let ((?v_0 (f97 f98 ?v0))) (= (f96 ?v_0 (f5 (f6 f7 ?v1) ?v2)) (f21 (f36 f38 (f96 ?v_0 ?v1)) (f96 ?v_0 ?v2))))))
(assert (forall ((?v0 S24) (?v1 S2) (?v2 S2)) (let ((?v_0 (f92 f93 ?v0))) (= (f91 ?v_0 (f5 (f6 f7 ?v1) ?v2)) (f39 (f45 f47 (f91 ?v_0 ?v1)) (f91 ?v_0 ?v2))))))
(assert (forall ((?v0 S15) (?v1 S2) (?v2 S2)) (let ((?v_0 (f87 f88 ?v0))) (= (f86 ?v_0 (f5 (f6 f7 ?v1) ?v2)) (f27 (f53 f55 (f86 ?v_0 ?v1)) (f86 ?v_0 ?v2))))))
(assert (forall ((?v0 S36) (?v1 S2) (?v2 S2)) (let ((?v_0 (f65 f66 ?v0))) (= (f64 ?v_0 (f5 (f6 f7 ?v1) ?v2)) (f56 (f61 f63 (f64 ?v_0 ?v1)) (f64 ?v_0 ?v2))))))
(assert (forall ((?v0 S3) (?v1 S2) (?v2 S2)) (let ((?v_0 (f19 f20 ?v0))) (= (f12 (f15 f17 (f18 ?v_0 ?v1)) (f18 ?v_0 ?v2)) (f18 ?v_0 (f5 (f6 f7 ?v1) ?v2))))))
(assert (forall ((?v0 S2) (?v1 S2) (?v2 S2)) (let ((?v_0 (f6 f69 ?v0))) (= (f5 (f6 f30 (f5 ?v_0 ?v1)) (f5 ?v_0 ?v2)) (f5 ?v_0 (f5 (f6 f7 ?v1) ?v2))))))
(assert (forall ((?v0 S4) (?v1 S2) (?v2 S2)) (let ((?v_0 (f97 f98 ?v0))) (= (f21 (f36 f38 (f96 ?v_0 ?v1)) (f96 ?v_0 ?v2)) (f96 ?v_0 (f5 (f6 f7 ?v1) ?v2))))))
(assert (forall ((?v0 S24) (?v1 S2) (?v2 S2)) (let ((?v_0 (f92 f93 ?v0))) (= (f39 (f45 f47 (f91 ?v_0 ?v1)) (f91 ?v_0 ?v2)) (f91 ?v_0 (f5 (f6 f7 ?v1) ?v2))))))
(assert (forall ((?v0 S15) (?v1 S2) (?v2 S2)) (let ((?v_0 (f87 f88 ?v0))) (= (f27 (f53 f55 (f86 ?v_0 ?v1)) (f86 ?v_0 ?v2)) (f86 ?v_0 (f5 (f6 f7 ?v1) ?v2))))))
(assert (forall ((?v0 S36) (?v1 S2) (?v2 S2)) (let ((?v_0 (f65 f66 ?v0))) (= (f56 (f61 f63 (f64 ?v_0 ?v1)) (f64 ?v_0 ?v2)) (f64 ?v_0 (f5 (f6 f7 ?v1) ?v2))))))
(assert (forall ((?v0 S36)) (= (f64 (f65 f66 ?v0) f4) f68)))
(assert (forall ((?v0 S2)) (= (f5 (f6 f69 ?v0) f4) f10)))
(assert (forall ((?v0 S3)) (= (f18 (f19 f20 ?v0) f4) f70)))
(assert (forall ((?v0 S19)) (= (f71 (f72 f73 ?v0) f4) f75)))
(assert (forall ((?v0 S25)) (= (f76 (f77 f78 ?v0) f4) f80)))
(assert (forall ((?v0 S31)) (= (f81 (f82 f83 ?v0) f4) f85)))
(assert (forall ((?v0 S15)) (= (f86 (f87 f88 ?v0) f4) f90)))
(assert (forall ((?v0 S24)) (= (f91 (f92 f93 ?v0) f4) f95)))
(assert (forall ((?v0 S4)) (= (f96 (f97 f98 ?v0) f4) f100)))
(assert (forall ((?v0 S36)) (= (f64 (f65 f66 ?v0) f4) f68)))
(assert (forall ((?v0 S2)) (= (f5 (f6 f69 ?v0) f4) f10)))
(assert (forall ((?v0 S3)) (= (f18 (f19 f20 ?v0) f4) f70)))
(assert (forall ((?v0 S19)) (= (f71 (f72 f73 ?v0) f4) f75)))
(assert (forall ((?v0 S25)) (= (f76 (f77 f78 ?v0) f4) f80)))
(assert (forall ((?v0 S31)) (= (f81 (f82 f83 ?v0) f4) f85)))
(assert (forall ((?v0 S15)) (= (f86 (f87 f88 ?v0) f4) f90)))
(assert (forall ((?v0 S24)) (= (f91 (f92 f93 ?v0) f4) f95)))
(assert (forall ((?v0 S4)) (= (f96 (f97 f98 ?v0) f4) f100)))
(assert (forall ((?v0 S36) (?v1 S2)) (= (= (f64 (f65 f66 ?v0) ?v1) f67) (and (= ?v0 f67) (not (= ?v1 f4))))))
(assert (forall ((?v0 S2) (?v1 S2)) (= (= (f5 (f6 f69 ?v0) ?v1) f4) (and (= ?v0 f4) (not (= ?v1 f4))))))
(assert (forall ((?v0 S3) (?v1 S2)) (= (= (f18 (f19 f20 ?v0) ?v1) f3) (and (= ?v0 f3) (not (= ?v1 f4))))))
(assert (forall ((?v0 S19) (?v1 S2)) (= (= (f71 (f72 f73 ?v0) ?v1) f74) (and (= ?v0 f74) (not (= ?v1 f4))))))
(assert (forall ((?v0 S25) (?v1 S2)) (= (= (f76 (f77 f78 ?v0) ?v1) f79) (and (= ?v0 f79) (not (= ?v1 f4))))))
(assert (forall ((?v0 S24) (?v1 S2)) (= (= (f91 (f92 f93 ?v0) ?v1) f94) (and (= ?v0 f94) (not (= ?v1 f4))))))
(assert (forall ((?v0 S4) (?v1 S2)) (= (= (f96 (f97 f98 ?v0) ?v1) f99) (and (= ?v0 f99) (not (= ?v1 f4))))))
(assert (forall ((?v0 S36)) (= (f56 (f61 f62 ?v0) ?v0) (f56 (f61 f63 (f56 (f61 f62 f68) f68)) ?v0))))
(assert (forall ((?v0 S2)) (= (f5 (f6 f7 ?v0) ?v0) (f5 (f6 f30 (f5 (f6 f7 f10) f10)) ?v0))))
(assert (forall ((?v0 S3)) (= (f12 (f15 f16 ?v0) ?v0) (f12 (f15 f17 (f12 (f15 f16 f70) f70)) ?v0))))
(assert (forall ((?v0 S19)) (= (f33 (f101 f102 ?v0) ?v0) (f33 (f101 f103 (f33 (f101 f102 f75) f75)) ?v0))))
(assert (forall ((?v0 S25)) (= (f42 (f104 f105 ?v0) ?v0) (f42 (f104 f106 (f42 (f104 f105 f80) f80)) ?v0))))
(assert (forall ((?v0 S31)) (= (f50 (f107 f108 ?v0) ?v0) (f50 (f107 f109 (f50 (f107 f108 f85) f85)) ?v0))))
(assert (forall ((?v0 S15)) (= (f27 (f53 f54 ?v0) ?v0) (f27 (f53 f55 (f27 (f53 f54 f90) f90)) ?v0))))
(assert (forall ((?v0 S24)) (= (f39 (f45 f46 ?v0) ?v0) (f39 (f45 f47 (f39 (f45 f46 f95) f95)) ?v0))))
(assert (forall ((?v0 S4)) (= (f21 (f36 f37 ?v0) ?v0) (f21 (f36 f38 (f21 (f36 f37 f100) f100)) ?v0))))
(assert (forall ((?v0 S36) (?v1 S36)) (= (f56 (f61 f62 ?v0) (f56 (f61 f63 ?v1) ?v0)) (f56 (f61 f63 (f56 (f61 f62 ?v1) f68)) ?v0))))
(assert (forall ((?v0 S2) (?v1 S2)) (= (f5 (f6 f7 ?v0) (f5 (f6 f30 ?v1) ?v0)) (f5 (f6 f30 (f5 (f6 f7 ?v1) f10)) ?v0))))
(assert (forall ((?v0 S3) (?v1 S3)) (= (f12 (f15 f16 ?v0) (f12 (f15 f17 ?v1) ?v0)) (f12 (f15 f17 (f12 (f15 f16 ?v1) f70)) ?v0))))
(assert (forall ((?v0 S19) (?v1 S19)) (= (f33 (f101 f102 ?v0) (f33 (f101 f103 ?v1) ?v0)) (f33 (f101 f103 (f33 (f101 f102 ?v1) f75)) ?v0))))
(assert (forall ((?v0 S25) (?v1 S25)) (= (f42 (f104 f105 ?v0) (f42 (f104 f106 ?v1) ?v0)) (f42 (f104 f106 (f42 (f104 f105 ?v1) f80)) ?v0))))
(assert (forall ((?v0 S31) (?v1 S31)) (= (f50 (f107 f108 ?v0) (f50 (f107 f109 ?v1) ?v0)) (f50 (f107 f109 (f50 (f107 f108 ?v1) f85)) ?v0))))
(assert (forall ((?v0 S15) (?v1 S15)) (= (f27 (f53 f54 ?v0) (f27 (f53 f55 ?v1) ?v0)) (f27 (f53 f55 (f27 (f53 f54 ?v1) f90)) ?v0))))
(assert (forall ((?v0 S24) (?v1 S24)) (= (f39 (f45 f46 ?v0) (f39 (f45 f47 ?v1) ?v0)) (f39 (f45 f47 (f39 (f45 f46 ?v1) f95)) ?v0))))
(assert (forall ((?v0 S4) (?v1 S4)) (= (f21 (f36 f37 ?v0) (f21 (f36 f38 ?v1) ?v0)) (f21 (f36 f38 (f21 (f36 f37 ?v1) f100)) ?v0))))
(assert (forall ((?v0 S36) (?v1 S36)) (= (f56 (f61 f62 (f56 (f61 f63 ?v0) ?v1)) ?v1) (f56 (f61 f63 (f56 (f61 f62 ?v0) f68)) ?v1))))
(assert (forall ((?v0 S2) (?v1 S2)) (= (f5 (f6 f7 (f5 (f6 f30 ?v0) ?v1)) ?v1) (f5 (f6 f30 (f5 (f6 f7 ?v0) f10)) ?v1))))
(assert (forall ((?v0 S3) (?v1 S3)) (= (f12 (f15 f16 (f12 (f15 f17 ?v0) ?v1)) ?v1) (f12 (f15 f17 (f12 (f15 f16 ?v0) f70)) ?v1))))
(assert (forall ((?v0 S19) (?v1 S19)) (= (f33 (f101 f102 (f33 (f101 f103 ?v0) ?v1)) ?v1) (f33 (f101 f103 (f33 (f101 f102 ?v0) f75)) ?v1))))
(assert (forall ((?v0 S25) (?v1 S25)) (= (f42 (f104 f105 (f42 (f104 f106 ?v0) ?v1)) ?v1) (f42 (f104 f106 (f42 (f104 f105 ?v0) f80)) ?v1))))
(assert (forall ((?v0 S31) (?v1 S31)) (= (f50 (f107 f108 (f50 (f107 f109 ?v0) ?v1)) ?v1) (f50 (f107 f109 (f50 (f107 f108 ?v0) f85)) ?v1))))
(assert (forall ((?v0 S15) (?v1 S15)) (= (f27 (f53 f54 (f27 (f53 f55 ?v0) ?v1)) ?v1) (f27 (f53 f55 (f27 (f53 f54 ?v0) f90)) ?v1))))
(assert (forall ((?v0 S24) (?v1 S24)) (= (f39 (f45 f46 (f39 (f45 f47 ?v0) ?v1)) ?v1) (f39 (f45 f47 (f39 (f45 f46 ?v0) f95)) ?v1))))
(assert (forall ((?v0 S4) (?v1 S4)) (= (f21 (f36 f37 (f21 (f36 f38 ?v0) ?v1)) ?v1) (f21 (f36 f38 (f21 (f36 f37 ?v0) f100)) ?v1))))
(assert (forall ((?v0 S36) (?v1 S36)) (= (= (f56 (f61 f62 (f56 (f61 f63 ?v0) ?v0)) (f56 (f61 f63 ?v1) ?v1)) f67) (and (= ?v0 f67) (= ?v1 f67)))))
(assert (forall ((?v0 S25) (?v1 S25)) (= (= (f42 (f104 f105 (f42 (f104 f106 ?v0) ?v0)) (f42 (f104 f106 ?v1) ?v1)) f79) (and (= ?v0 f79) (= ?v1 f79)))))
(assert (forall ((?v0 S24) (?v1 S24)) (= (= (f39 (f45 f46 (f39 (f45 f47 ?v0) ?v0)) (f39 (f45 f47 ?v1) ?v1)) f94) (and (= ?v0 f94) (= ?v1 f94)))))
(assert (forall ((?v0 S3) (?v1 S3) (?v2 S3) (?v3 S3) (?v4 S3)) (let ((?v_0 (f15 f17 ?v0))) (=> (not (= ?v0 f3)) (=> (and (= ?v1 ?v2) (not (= ?v3 ?v4))) (not (= (f12 (f15 f16 ?v1) (f12 ?v_0 ?v3)) (f12 (f15 f16 ?v2) (f12 ?v_0 ?v4)))))))))
(assert (forall ((?v0 S2) (?v1 S2) (?v2 S2) (?v3 S2) (?v4 S2)) (let ((?v_0 (f6 f30 ?v0))) (=> (not (= ?v0 f4)) (=> (and (= ?v1 ?v2) (not (= ?v3 ?v4))) (not (= (f5 (f6 f7 ?v1) (f5 ?v_0 ?v3)) (f5 (f6 f7 ?v2) (f5 ?v_0 ?v4)))))))))
(assert (forall ((?v0 S36) (?v1 S36) (?v2 S36) (?v3 S36) (?v4 S36)) (let ((?v_0 (f61 f63 ?v0))) (=> (not (= ?v0 f67)) (=> (and (= ?v1 ?v2) (not (= ?v3 ?v4))) (not (= (f56 (f61 f62 ?v1) (f56 ?v_0 ?v3)) (f56 (f61 f62 ?v2) (f56 ?v_0 ?v4)))))))))
(assert (forall ((?v0 S19) (?v1 S19) (?v2 S19) (?v3 S19) (?v4 S19)) (let ((?v_0 (f101 f103 ?v0))) (=> (not (= ?v0 f74)) (=> (and (= ?v1 ?v2) (not (= ?v3 ?v4))) (not (= (f33 (f101 f102 ?v1) (f33 ?v_0 ?v3)) (f33 (f101 f102 ?v2) (f33 ?v_0 ?v4)))))))))
(assert (forall ((?v0 S25) (?v1 S25) (?v2 S25) (?v3 S25) (?v4 S25)) (let ((?v_0 (f104 f106 ?v0))) (=> (not (= ?v0 f79)) (=> (and (= ?v1 ?v2) (not (= ?v3 ?v4))) (not (= (f42 (f104 f105 ?v1) (f42 ?v_0 ?v3)) (f42 (f104 f105 ?v2) (f42 ?v_0 ?v4)))))))))
(assert (forall ((?v0 S24) (?v1 S24) (?v2 S24) (?v3 S24) (?v4 S24)) (let ((?v_0 (f45 f47 ?v0))) (=> (not (= ?v0 f94)) (=> (and (= ?v1 ?v2) (not (= ?v3 ?v4))) (not (= (f39 (f45 f46 ?v1) (f39 ?v_0 ?v3)) (f39 (f45 f46 ?v2) (f39 ?v_0 ?v4)))))))))
(assert (forall ((?v0 S4) (?v1 S4) (?v2 S4) (?v3 S4) (?v4 S4)) (let ((?v_0 (f36 f38 ?v0))) (=> (not (= ?v0 f99)) (=> (and (= ?v1 ?v2) (not (= ?v3 ?v4))) (not (= (f21 (f36 f37 ?v1) (f21 ?v_0 ?v3)) (f21 (f36 f37 ?v2) (f21 ?v_0 ?v4)))))))))
(assert (forall ((?v0 S3) (?v1 S2) (?v2 S2)) (let ((?v_0 (f19 f20 ?v0))) (= (f18 (f19 f20 (f18 ?v_0 ?v1)) ?v2) (f18 ?v_0 (f5 (f6 f30 ?v1) ?v2))))))
(assert (forall ((?v0 S4) (?v1 S2) (?v2 S2)) (let ((?v_0 (f97 f98 ?v0))) (= (f96 (f97 f98 (f96 ?v_0 ?v1)) ?v2) (f96 ?v_0 (f5 (f6 f30 ?v1) ?v2))))))
(assert (forall ((?v0 S24) (?v1 S2) (?v2 S2)) (let ((?v_0 (f92 f93 ?v0))) (= (f91 (f92 f93 (f91 ?v_0 ?v1)) ?v2) (f91 ?v_0 (f5 (f6 f30 ?v1) ?v2))))))
(assert (forall ((?v0 S15) (?v1 S2) (?v2 S2)) (let ((?v_0 (f87 f88 ?v0))) (= (f86 (f87 f88 (f86 ?v_0 ?v1)) ?v2) (f86 ?v_0 (f5 (f6 f30 ?v1) ?v2))))))
(assert (forall ((?v0 S2) (?v1 S2) (?v2 S2)) (let ((?v_0 (f6 f69 ?v0))) (= (f5 (f6 f69 (f5 ?v_0 ?v1)) ?v2) (f5 ?v_0 (f5 (f6 f30 ?v1) ?v2))))))
(assert (forall ((?v0 S36) (?v1 S2) (?v2 S2)) (let ((?v_0 (f65 f66 ?v0))) (= (f64 (f65 f66 (f64 ?v_0 ?v1)) ?v2) (f64 ?v_0 (f5 (f6 f30 ?v1) ?v2))))))
(assert (forall ((?v0 S3) (?v1 S2) (?v2 S2)) (let ((?v_0 (f19 f20 ?v0))) (= (f18 ?v_0 (f5 (f6 f30 ?v1) ?v2)) (f18 (f19 f20 (f18 ?v_0 ?v1)) ?v2)))))
(assert (forall ((?v0 S4) (?v1 S2) (?v2 S2)) (let ((?v_0 (f97 f98 ?v0))) (= (f96 ?v_0 (f5 (f6 f30 ?v1) ?v2)) (f96 (f97 f98 (f96 ?v_0 ?v1)) ?v2)))))
(assert (forall ((?v0 S24) (?v1 S2) (?v2 S2)) (let ((?v_0 (f92 f93 ?v0))) (= (f91 ?v_0 (f5 (f6 f30 ?v1) ?v2)) (f91 (f92 f93 (f91 ?v_0 ?v1)) ?v2)))))
(assert (forall ((?v0 S15) (?v1 S2) (?v2 S2)) (let ((?v_0 (f87 f88 ?v0))) (= (f86 ?v_0 (f5 (f6 f30 ?v1) ?v2)) (f86 (f87 f88 (f86 ?v_0 ?v1)) ?v2)))))
(assert (forall ((?v0 S2) (?v1 S2) (?v2 S2)) (let ((?v_0 (f6 f69 ?v0))) (= (f5 ?v_0 (f5 (f6 f30 ?v1) ?v2)) (f5 (f6 f69 (f5 ?v_0 ?v1)) ?v2)))))
(assert (forall ((?v0 S36) (?v1 S2) (?v2 S2)) (let ((?v_0 (f65 f66 ?v0))) (= (f64 ?v_0 (f5 (f6 f30 ?v1) ?v2)) (f64 (f65 f66 (f64 ?v_0 ?v1)) ?v2)))))
(assert (forall ((?v0 S25)) (= (= (f40 f41 ?v0) (f40 f41 f79)) (= ?v0 f79))))
(assert (forall ((?v0 S24)) (= (= (f57 f58 ?v0) (f57 f58 f94)) (= ?v0 f94))))
(assert (= f100 (f21 (f22 f23 f70) f99)))
(assert (= f95 (f39 (f59 f60 f68) f94)))
(assert (= f90 (f27 (f28 f29 f10) f89)))
(assert (= f110 (f111 f75 f112)))
(assert (= f113 (f114 f80 f115)))
(assert (= f116 (f117 f85 f118)))
(assert (= f85 (f50 (f51 f52 f90) f84)))
(assert (= f80 (f42 (f43 f44 f95) f79)))
(assert (= f75 (f33 (f34 f35 f100) f74)))
(assert (forall ((?v0 S4)) (= (= (f8 f9 ?v0) f4) (= ?v0 f99))))
(assert (forall ((?v0 S19)) (= (= (f119 f120 ?v0) f4) (= ?v0 f74))))
(assert (forall ((?v0 S25)) (= (= (f121 f122 ?v0) f4) (= ?v0 f79))))
(assert (forall ((?v0 S31)) (= (= (f123 f124 ?v0) f4) (= ?v0 f84))))
(assert (forall ((?v0 S15)) (= (= (f125 f126 ?v0) f4) (= ?v0 f89))))
(assert (forall ((?v0 S24)) (= (= (f127 f128 ?v0) f4) (= ?v0 f94))))
(assert (forall ((?v0 S2) (?v1 S2) (?v2 S2) (?v3 S2)) (let ((?v_0 (f6 f30 ?v0))) (= (f5 (f6 f30 (f5 ?v_0 ?v1)) (f5 (f6 f30 ?v2) ?v3)) (f5 (f6 f30 (f5 ?v_0 ?v2)) (f5 (f6 f30 ?v1) ?v3))))))
(assert (forall ((?v0 S3) (?v1 S3) (?v2 S3) (?v3 S3)) (let ((?v_0 (f15 f17 ?v0))) (= (f12 (f15 f17 (f12 ?v_0 ?v1)) (f12 (f15 f17 ?v2) ?v3)) (f12 (f15 f17 (f12 ?v_0 ?v2)) (f12 (f15 f17 ?v1) ?v3))))))
(assert (forall ((?v0 S4) (?v1 S4) (?v2 S4) (?v3 S4)) (let ((?v_0 (f36 f38 ?v0))) (= (f21 (f36 f38 (f21 ?v_0 ?v1)) (f21 (f36 f38 ?v2) ?v3)) (f21 (f36 f38 (f21 ?v_0 ?v2)) (f21 (f36 f38 ?v1) ?v3))))))
(assert (forall ((?v0 S24) (?v1 S24) (?v2 S24) (?v3 S24)) (let ((?v_0 (f45 f47 ?v0))) (= (f39 (f45 f47 (f39 ?v_0 ?v1)) (f39 (f45 f47 ?v2) ?v3)) (f39 (f45 f47 (f39 ?v_0 ?v2)) (f39 (f45 f47 ?v1) ?v3))))))
(assert (forall ((?v0 S15) (?v1 S15) (?v2 S15) (?v3 S15)) (let ((?v_0 (f53 f55 ?v0))) (= (f27 (f53 f55 (f27 ?v_0 ?v1)) (f27 (f53 f55 ?v2) ?v3)) (f27 (f53 f55 (f27 ?v_0 ?v2)) (f27 (f53 f55 ?v1) ?v3))))))
(assert (forall ((?v0 S36) (?v1 S36) (?v2 S36) (?v3 S36)) (let ((?v_0 (f61 f63 ?v0))) (= (f56 (f61 f63 (f56 ?v_0 ?v1)) (f56 (f61 f63 ?v2) ?v3)) (f56 (f61 f63 (f56 ?v_0 ?v2)) (f56 (f61 f63 ?v1) ?v3))))))
(assert (forall ((?v0 S2) (?v1 S2) (?v2 S2) (?v3 S2)) (let ((?v_1 (f6 f30 (f5 (f6 f30 ?v0) ?v1))) (?v_0 (f6 f30 ?v2))) (= (f5 ?v_1 (f5 ?v_0 ?v3)) (f5 ?v_0 (f5 ?v_1 ?v3))))))
(assert (forall ((?v0 S3) (?v1 S3) (?v2 S3) (?v3 S3)) (let ((?v_1 (f15 f17 (f12 (f15 f17 ?v0) ?v1))) (?v_0 (f15 f17 ?v2))) (= (f12 ?v_1 (f12 ?v_0 ?v3)) (f12 ?v_0 (f12 ?v_1 ?v3))))))
(assert (forall ((?v0 S4) (?v1 S4) (?v2 S4) (?v3 S4)) (let ((?v_1 (f36 f38 (f21 (f36 f38 ?v0) ?v1))) (?v_0 (f36 f38 ?v2))) (= (f21 ?v_1 (f21 ?v_0 ?v3)) (f21 ?v_0 (f21 ?v_1 ?v3))))))
(assert (forall ((?v0 S24) (?v1 S24) (?v2 S24) (?v3 S24)) (let ((?v_1 (f45 f47 (f39 (f45 f47 ?v0) ?v1))) (?v_0 (f45 f47 ?v2))) (= (f39 ?v_1 (f39 ?v_0 ?v3)) (f39 ?v_0 (f39 ?v_1 ?v3))))))
(assert (forall ((?v0 S15) (?v1 S15) (?v2 S15) (?v3 S15)) (let ((?v_1 (f53 f55 (f27 (f53 f55 ?v0) ?v1))) (?v_0 (f53 f55 ?v2))) (= (f27 ?v_1 (f27 ?v_0 ?v3)) (f27 ?v_0 (f27 ?v_1 ?v3))))))
(assert (forall ((?v0 S36) (?v1 S36) (?v2 S36) (?v3 S36)) (let ((?v_1 (f61 f63 (f56 (f61 f63 ?v0) ?v1))) (?v_0 (f61 f63 ?v2))) (= (f56 ?v_1 (f56 ?v_0 ?v3)) (f56 ?v_0 (f56 ?v_1 ?v3))))))
(assert (forall ((?v0 S2) (?v1 S2) (?v2 S2) (?v3 S2)) (let ((?v_0 (f6 f30 ?v0)) (?v_1 (f5 (f6 f30 ?v2) ?v3))) (= (f5 (f6 f30 (f5 ?v_0 ?v1)) ?v_1) (f5 ?v_0 (f5 (f6 f30 ?v1) ?v_1))))))
(assert (forall ((?v0 S3) (?v1 S3) (?v2 S3) (?v3 S3)) (let ((?v_0 (f15 f17 ?v0)) (?v_1 (f12 (f15 f17 ?v2) ?v3))) (= (f12 (f15 f17 (f12 ?v_0 ?v1)) ?v_1) (f12 ?v_0 (f12 (f15 f17 ?v1) ?v_1))))))
(assert (forall ((?v0 S4) (?v1 S4) (?v2 S4) (?v3 S4)) (let ((?v_0 (f36 f38 ?v0)) (?v_1 (f21 (f36 f38 ?v2) ?v3))) (= (f21 (f36 f38 (f21 ?v_0 ?v1)) ?v_1) (f21 ?v_0 (f21 (f36 f38 ?v1) ?v_1))))))
(assert (forall ((?v0 S24) (?v1 S24) (?v2 S24) (?v3 S24)) (let ((?v_0 (f45 f47 ?v0)) (?v_1 (f39 (f45 f47 ?v2) ?v3))) (= (f39 (f45 f47 (f39 ?v_0 ?v1)) ?v_1) (f39 ?v_0 (f39 (f45 f47 ?v1) ?v_1))))))
(assert (forall ((?v0 S15) (?v1 S15) (?v2 S15) (?v3 S15)) (let ((?v_0 (f53 f55 ?v0)) (?v_1 (f27 (f53 f55 ?v2) ?v3))) (= (f27 (f53 f55 (f27 ?v_0 ?v1)) ?v_1) (f27 ?v_0 (f27 (f53 f55 ?v1) ?v_1))))))
(assert (forall ((?v0 S36) (?v1 S36) (?v2 S36) (?v3 S36)) (let ((?v_0 (f61 f63 ?v0)) (?v_1 (f56 (f61 f63 ?v2) ?v3))) (= (f56 (f61 f63 (f56 ?v_0 ?v1)) ?v_1) (f56 ?v_0 (f56 (f61 f63 ?v1) ?v_1))))))
(assert (forall ((?v0 S2) (?v1 S2) (?v2 S2)) (let ((?v_0 (f6 f30 ?v0))) (= (f5 (f6 f30 (f5 ?v_0 ?v1)) ?v2) (f5 (f6 f30 (f5 ?v_0 ?v2)) ?v1)))))
(assert (forall ((?v0 S3) (?v1 S3) (?v2 S3)) (let ((?v_0 (f15 f17 ?v0))) (= (f12 (f15 f17 (f12 ?v_0 ?v1)) ?v2) (f12 (f15 f17 (f12 ?v_0 ?v2)) ?v1)))))
(assert (forall ((?v0 S4) (?v1 S4) (?v2 S4)) (let ((?v_0 (f36 f38 ?v0))) (= (f21 (f36 f38 (f21 ?v_0 ?v1)) ?v2) (f21 (f36 f38 (f21 ?v_0 ?v2)) ?v1)))))
(assert (forall ((?v0 S24) (?v1 S24) (?v2 S24)) (let ((?v_0 (f45 f47 ?v0))) (= (f39 (f45 f47 (f39 ?v_0 ?v1)) ?v2) (f39 (f45 f47 (f39 ?v_0 ?v2)) ?v1)))))
(assert (forall ((?v0 S15) (?v1 S15) (?v2 S15)) (let ((?v_0 (f53 f55 ?v0))) (= (f27 (f53 f55 (f27 ?v_0 ?v1)) ?v2) (f27 (f53 f55 (f27 ?v_0 ?v2)) ?v1)))))
(assert (forall ((?v0 S36) (?v1 S36) (?v2 S36)) (let ((?v_0 (f61 f63 ?v0))) (= (f56 (f61 f63 (f56 ?v_0 ?v1)) ?v2) (f56 (f61 f63 (f56 ?v_0 ?v2)) ?v1)))))
(assert (forall ((?v0 S2) (?v1 S2) (?v2 S2)) (let ((?v_0 (f6 f30 ?v0))) (= (f5 (f6 f30 (f5 ?v_0 ?v1)) ?v2) (f5 ?v_0 (f5 (f6 f30 ?v1) ?v2))))))
(assert (forall ((?v0 S3) (?v1 S3) (?v2 S3)) (let ((?v_0 (f15 f17 ?v0))) (= (f12 (f15 f17 (f12 ?v_0 ?v1)) ?v2) (f12 ?v_0 (f12 (f15 f17 ?v1) ?v2))))))
(assert (forall ((?v0 S4) (?v1 S4) (?v2 S4)) (let ((?v_0 (f36 f38 ?v0))) (= (f21 (f36 f38 (f21 ?v_0 ?v1)) ?v2) (f21 ?v_0 (f21 (f36 f38 ?v1) ?v2))))))
(assert (forall ((?v0 S24) (?v1 S24) (?v2 S24)) (let ((?v_0 (f45 f47 ?v0))) (= (f39 (f45 f47 (f39 ?v_0 ?v1)) ?v2) (f39 ?v_0 (f39 (f45 f47 ?v1) ?v2))))))
(assert (forall ((?v0 S15) (?v1 S15) (?v2 S15)) (let ((?v_0 (f53 f55 ?v0))) (= (f27 (f53 f55 (f27 ?v_0 ?v1)) ?v2) (f27 ?v_0 (f27 (f53 f55 ?v1) ?v2))))))
(assert (forall ((?v0 S36) (?v1 S36) (?v2 S36)) (let ((?v_0 (f61 f63 ?v0))) (= (f56 (f61 f63 (f56 ?v_0 ?v1)) ?v2) (f56 ?v_0 (f56 (f61 f63 ?v1) ?v2))))))
(assert (forall ((?v0 S2) (?v1 S2) (?v2 S2)) (let ((?v_0 (f6 f30 ?v0))) (= (f5 ?v_0 (f5 (f6 f30 ?v1) ?v2)) (f5 (f6 f30 (f5 ?v_0 ?v1)) ?v2)))))
(assert (forall ((?v0 S3) (?v1 S3) (?v2 S3)) (let ((?v_0 (f15 f17 ?v0))) (= (f12 ?v_0 (f12 (f15 f17 ?v1) ?v2)) (f12 (f15 f17 (f12 ?v_0 ?v1)) ?v2)))))
(assert (forall ((?v0 S4) (?v1 S4) (?v2 S4)) (let ((?v_0 (f36 f38 ?v0))) (= (f21 ?v_0 (f21 (f36 f38 ?v1) ?v2)) (f21 (f36 f38 (f21 ?v_0 ?v1)) ?v2)))))
(assert (forall ((?v0 S24) (?v1 S24) (?v2 S24)) (let ((?v_0 (f45 f47 ?v0))) (= (f39 ?v_0 (f39 (f45 f47 ?v1) ?v2)) (f39 (f45 f47 (f39 ?v_0 ?v1)) ?v2)))))
(assert (forall ((?v0 S15) (?v1 S15) (?v2 S15)) (let ((?v_0 (f53 f55 ?v0))) (= (f27 ?v_0 (f27 (f53 f55 ?v1) ?v2)) (f27 (f53 f55 (f27 ?v_0 ?v1)) ?v2)))))
(assert (forall ((?v0 S36) (?v1 S36) (?v2 S36)) (let ((?v_0 (f61 f63 ?v0))) (= (f56 ?v_0 (f56 (f61 f63 ?v1) ?v2)) (f56 (f61 f63 (f56 ?v_0 ?v1)) ?v2)))))
(assert (forall ((?v0 S2) (?v1 S2) (?v2 S2)) (let ((?v_1 (f6 f30 ?v0)) (?v_0 (f6 f30 ?v1))) (= (f5 ?v_1 (f5 ?v_0 ?v2)) (f5 ?v_0 (f5 ?v_1 ?v2))))))
(assert (forall ((?v0 S3) (?v1 S3) (?v2 S3)) (let ((?v_1 (f15 f17 ?v0)) (?v_0 (f15 f17 ?v1))) (= (f12 ?v_1 (f12 ?v_0 ?v2)) (f12 ?v_0 (f12 ?v_1 ?v2))))))
(assert (forall ((?v0 S4) (?v1 S4) (?v2 S4)) (let ((?v_1 (f36 f38 ?v0)) (?v_0 (f36 f38 ?v1))) (= (f21 ?v_1 (f21 ?v_0 ?v2)) (f21 ?v_0 (f21 ?v_1 ?v2))))))
(assert (forall ((?v0 S24) (?v1 S24) (?v2 S24)) (let ((?v_1 (f45 f47 ?v0)) (?v_0 (f45 f47 ?v1))) (= (f39 ?v_1 (f39 ?v_0 ?v2)) (f39 ?v_0 (f39 ?v_1 ?v2))))))
(assert (forall ((?v0 S15) (?v1 S15) (?v2 S15)) (let ((?v_1 (f53 f55 ?v0)) (?v_0 (f53 f55 ?v1))) (= (f27 ?v_1 (f27 ?v_0 ?v2)) (f27 ?v_0 (f27 ?v_1 ?v2))))))
(assert (forall ((?v0 S36) (?v1 S36) (?v2 S36)) (let ((?v_1 (f61 f63 ?v0)) (?v_0 (f61 f63 ?v1))) (= (f56 ?v_1 (f56 ?v_0 ?v2)) (f56 ?v_0 (f56 ?v_1 ?v2))))))
(assert (forall ((?v0 S2) (?v1 S2)) (= (f5 (f6 f30 ?v0) ?v1) (f5 (f6 f30 ?v1) ?v0))))
(assert (forall ((?v0 S3) (?v1 S3)) (= (f12 (f15 f17 ?v0) ?v1) (f12 (f15 f17 ?v1) ?v0))))
(assert (forall ((?v0 S4) (?v1 S4)) (= (f21 (f36 f38 ?v0) ?v1) (f21 (f36 f38 ?v1) ?v0))))
(assert (forall ((?v0 S24) (?v1 S24)) (= (f39 (f45 f47 ?v0) ?v1) (f39 (f45 f47 ?v1) ?v0))))
(assert (forall ((?v0 S15) (?v1 S15)) (= (f27 (f53 f55 ?v0) ?v1) (f27 (f53 f55 ?v1) ?v0))))
(assert (forall ((?v0 S36) (?v1 S36)) (= (f56 (f61 f63 ?v0) ?v1) (f56 (f61 f63 ?v1) ?v0))))
(assert (forall ((?v0 S3) (?v1 S3) (?v2 S3) (?v3 S3)) (let ((?v_0 (f15 f16 ?v0))) (= (f12 (f15 f16 (f12 ?v_0 ?v1)) (f12 (f15 f16 ?v2) ?v3)) (f12 (f15 f16 (f12 ?v_0 ?v2)) (f12 (f15 f16 ?v1) ?v3))))))
(assert (forall ((?v0 S2) (?v1 S2) (?v2 S2) (?v3 S2)) (let ((?v_0 (f6 f7 ?v0))) (= (f5 (f6 f7 (f5 ?v_0 ?v1)) (f5 (f6 f7 ?v2) ?v3)) (f5 (f6 f7 (f5 ?v_0 ?v2)) (f5 (f6 f7 ?v1) ?v3))))))
(assert (forall ((?v0 S4) (?v1 S4) (?v2 S4) (?v3 S4)) (let ((?v_0 (f36 f37 ?v0))) (= (f21 (f36 f37 (f21 ?v_0 ?v1)) (f21 (f36 f37 ?v2) ?v3)) (f21 (f36 f37 (f21 ?v_0 ?v2)) (f21 (f36 f37 ?v1) ?v3))))))
(assert (forall ((?v0 S24) (?v1 S24) (?v2 S24) (?v3 S24)) (let ((?v_0 (f45 f46 ?v0))) (= (f39 (f45 f46 (f39 ?v_0 ?v1)) (f39 (f45 f46 ?v2) ?v3)) (f39 (f45 f46 (f39 ?v_0 ?v2)) (f39 (f45 f46 ?v1) ?v3))))))
(assert (forall ((?v0 S15) (?v1 S15) (?v2 S15) (?v3 S15)) (let ((?v_0 (f53 f54 ?v0))) (= (f27 (f53 f54 (f27 ?v_0 ?v1)) (f27 (f53 f54 ?v2) ?v3)) (f27 (f53 f54 (f27 ?v_0 ?v2)) (f27 (f53 f54 ?v1) ?v3))))))
(assert (forall ((?v0 S36) (?v1 S36) (?v2 S36) (?v3 S36)) (let ((?v_0 (f61 f62 ?v0))) (= (f56 (f61 f62 (f56 ?v_0 ?v1)) (f56 (f61 f62 ?v2) ?v3)) (f56 (f61 f62 (f56 ?v_0 ?v2)) (f56 (f61 f62 ?v1) ?v3))))))
(assert (forall ((?v0 S3) (?v1 S3) (?v2 S3)) (let ((?v_0 (f15 f16 ?v0))) (= (f12 (f15 f16 (f12 ?v_0 ?v1)) ?v2) (f12 (f15 f16 (f12 ?v_0 ?v2)) ?v1)))))
(assert (forall ((?v0 S2) (?v1 S2) (?v2 S2)) (let ((?v_0 (f6 f7 ?v0))) (= (f5 (f6 f7 (f5 ?v_0 ?v1)) ?v2) (f5 (f6 f7 (f5 ?v_0 ?v2)) ?v1)))))
(assert (forall ((?v0 S4) (?v1 S4) (?v2 S4)) (let ((?v_0 (f36 f37 ?v0))) (= (f21 (f36 f37 (f21 ?v_0 ?v1)) ?v2) (f21 (f36 f37 (f21 ?v_0 ?v2)) ?v1)))))
(assert (forall ((?v0 S24) (?v1 S24) (?v2 S24)) (let ((?v_0 (f45 f46 ?v0))) (= (f39 (f45 f46 (f39 ?v_0 ?v1)) ?v2) (f39 (f45 f46 (f39 ?v_0 ?v2)) ?v1)))))
(assert (forall ((?v0 S15) (?v1 S15) (?v2 S15)) (let ((?v_0 (f53 f54 ?v0))) (= (f27 (f53 f54 (f27 ?v_0 ?v1)) ?v2) (f27 (f53 f54 (f27 ?v_0 ?v2)) ?v1)))))
(assert (forall ((?v0 S36) (?v1 S36) (?v2 S36)) (let ((?v_0 (f61 f62 ?v0))) (= (f56 (f61 f62 (f56 ?v_0 ?v1)) ?v2) (f56 (f61 f62 (f56 ?v_0 ?v2)) ?v1)))))
(assert (forall ((?v0 S3) (?v1 S3) (?v2 S3)) (let ((?v_0 (f15 f16 ?v0))) (= (f12 (f15 f16 (f12 ?v_0 ?v1)) ?v2) (f12 ?v_0 (f12 (f15 f16 ?v1) ?v2))))))
(assert (forall ((?v0 S2) (?v1 S2) (?v2 S2)) (let ((?v_0 (f6 f7 ?v0))) (= (f5 (f6 f7 (f5 ?v_0 ?v1)) ?v2) (f5 ?v_0 (f5 (f6 f7 ?v1) ?v2))))))
(assert (forall ((?v0 S4) (?v1 S4) (?v2 S4)) (let ((?v_0 (f36 f37 ?v0))) (= (f21 (f36 f37 (f21 ?v_0 ?v1)) ?v2) (f21 ?v_0 (f21 (f36 f37 ?v1) ?v2))))))
(assert (forall ((?v0 S24) (?v1 S24) (?v2 S24)) (let ((?v_0 (f45 f46 ?v0))) (= (f39 (f45 f46 (f39 ?v_0 ?v1)) ?v2) (f39 ?v_0 (f39 (f45 f46 ?v1) ?v2))))))
(assert (forall ((?v0 S15) (?v1 S15) (?v2 S15)) (let ((?v_0 (f53 f54 ?v0))) (= (f27 (f53 f54 (f27 ?v_0 ?v1)) ?v2) (f27 ?v_0 (f27 (f53 f54 ?v1) ?v2))))))
(assert (forall ((?v0 S36) (?v1 S36) (?v2 S36)) (let ((?v_0 (f61 f62 ?v0))) (= (f56 (f61 f62 (f56 ?v_0 ?v1)) ?v2) (f56 ?v_0 (f56 (f61 f62 ?v1) ?v2))))))
(assert (forall ((?v0 S3) (?v1 S3) (?v2 S3)) (let ((?v_0 (f15 f16 ?v0))) (= (f12 ?v_0 (f12 (f15 f16 ?v1) ?v2)) (f12 (f15 f16 (f12 ?v_0 ?v1)) ?v2)))))
(assert (forall ((?v0 S2) (?v1 S2) (?v2 S2)) (let ((?v_0 (f6 f7 ?v0))) (= (f5 ?v_0 (f5 (f6 f7 ?v1) ?v2)) (f5 (f6 f7 (f5 ?v_0 ?v1)) ?v2)))))
(assert (forall ((?v0 S4) (?v1 S4) (?v2 S4)) (let ((?v_0 (f36 f37 ?v0))) (= (f21 ?v_0 (f21 (f36 f37 ?v1) ?v2)) (f21 (f36 f37 (f21 ?v_0 ?v1)) ?v2)))))
(assert (forall ((?v0 S24) (?v1 S24) (?v2 S24)) (let ((?v_0 (f45 f46 ?v0))) (= (f39 ?v_0 (f39 (f45 f46 ?v1) ?v2)) (f39 (f45 f46 (f39 ?v_0 ?v1)) ?v2)))))
(assert (forall ((?v0 S15) (?v1 S15) (?v2 S15)) (let ((?v_0 (f53 f54 ?v0))) (= (f27 ?v_0 (f27 (f53 f54 ?v1) ?v2)) (f27 (f53 f54 (f27 ?v_0 ?v1)) ?v2)))))
(assert (forall ((?v0 S36) (?v1 S36) (?v2 S36)) (let ((?v_0 (f61 f62 ?v0))) (= (f56 ?v_0 (f56 (f61 f62 ?v1) ?v2)) (f56 (f61 f62 (f56 ?v_0 ?v1)) ?v2)))))
(assert (forall ((?v0 S3) (?v1 S3) (?v2 S3)) (let ((?v_1 (f15 f16 ?v0)) (?v_0 (f15 f16 ?v1))) (= (f12 ?v_1 (f12 ?v_0 ?v2)) (f12 ?v_0 (f12 ?v_1 ?v2))))))
(assert (forall ((?v0 S2) (?v1 S2) (?v2 S2)) (let ((?v_1 (f6 f7 ?v0)) (?v_0 (f6 f7 ?v1))) (= (f5 ?v_1 (f5 ?v_0 ?v2)) (f5 ?v_0 (f5 ?v_1 ?v2))))))
(assert (forall ((?v0 S4) (?v1 S4) (?v2 S4)) (let ((?v_1 (f36 f37 ?v0)) (?v_0 (f36 f37 ?v1))) (= (f21 ?v_1 (f21 ?v_0 ?v2)) (f21 ?v_0 (f21 ?v_1 ?v2))))))
(assert (forall ((?v0 S24) (?v1 S24) (?v2 S24)) (let ((?v_1 (f45 f46 ?v0)) (?v_0 (f45 f46 ?v1))) (= (f39 ?v_1 (f39 ?v_0 ?v2)) (f39 ?v_0 (f39 ?v_1 ?v2))))))
(assert (forall ((?v0 S15) (?v1 S15) (?v2 S15)) (let ((?v_1 (f53 f54 ?v0)) (?v_0 (f53 f54 ?v1))) (= (f27 ?v_1 (f27 ?v_0 ?v2)) (f27 ?v_0 (f27 ?v_1 ?v2))))))
(assert (forall ((?v0 S36) (?v1 S36) (?v2 S36)) (let ((?v_1 (f61 f62 ?v0)) (?v_0 (f61 f62 ?v1))) (= (f56 ?v_1 (f56 ?v_0 ?v2)) (f56 ?v_0 (f56 ?v_1 ?v2))))))
(assert (forall ((?v0 S3) (?v1 S3)) (= (f12 (f15 f16 ?v0) ?v1) (f12 (f15 f16 ?v1) ?v0))))
(assert (forall ((?v0 S2) (?v1 S2)) (= (f5 (f6 f7 ?v0) ?v1) (f5 (f6 f7 ?v1) ?v0))))
(assert (forall ((?v0 S4) (?v1 S4)) (= (f21 (f36 f37 ?v0) ?v1) (f21 (f36 f37 ?v1) ?v0))))
(assert (forall ((?v0 S24) (?v1 S24)) (= (f39 (f45 f46 ?v0) ?v1) (f39 (f45 f46 ?v1) ?v0))))
(assert (forall ((?v0 S15) (?v1 S15)) (= (f27 (f53 f54 ?v0) ?v1) (f27 (f53 f54 ?v1) ?v0))))
(assert (forall ((?v0 S36) (?v1 S36)) (= (f56 (f61 f62 ?v0) ?v1) (f56 (f61 f62 ?v1) ?v0))))
(check-sat)
(exit)
